experiment/zaligvinder/models/automatark/large/instance67.smt2
(set-logic QF_SLIA)
(set-option :produce-models true)
(declare-const X String)
; (\b(10|11|12|13|14|15|16|17|18|19)[0-9]\b)
(assert (str.in_re X (re.++ (str.to_re "\u{0a}") (re.range "0" "9") (str.to_re "1") (re.union (str.to_re "0") (str.to_re "1") (str.to_re "2") (str.to_re "3") (str.to_re "4") (str.to_re "5") (str.to_re "6") (str.to_re "7") (str.to_re "8") (str.to_re "9")))))
; areKeyloggerver=www\x2Esnap\x2Ecom
(assert (not (str.in_re X (str.to_re "areKeyloggerver=www.snap.com\u{0a}"))))
; /\u{2e}appendChild.*?\u{2e}id.{0,200}?(offset|client)(Height|Left|Parent|Top|Width).{0,200}?(offset|client)(Height|Left|Parent|Top|Width)/is
(assert (str.in_re X (re.++ (str.to_re "/.appendChild") (re.* re.allchar) (str.to_re ".id") ((_ re.loop 0 200) re.allchar) (re.union (str.to_re "offset") (str.to_re "client")) (re.union (str.to_re "Height") (str.to_re "Left") (str.to_re "Parent") (str.to_re "Top") (str.to_re "Width")) ((_ re.loop 0 200) re.allchar) (re.union (str.to_re "offset") (str.to_re "client")) (re.union (str.to_re "Height") (str.to_re "Left") (str.to_re "Parent") (str.to_re "Top") (str.to_re "Width")) (str.to_re "/is\u{0a}"))))
; ^([0-9A-F]{2}[:-]){5}([0-9A-F]{2})$
(assert (not (str.in_re X (re.++ ((_ re.loop 5 5) (re.++ ((_ re.loop 2 2) (re.union (re.range "0" "9") (re.range "A" "F"))) (re.union (str.to_re ":") (str.to_re "-")))) ((_ re.loop 2 2) (re.union (re.range "0" "9") (re.range "A" "F"))) (str.to_re "\u{0a}")))))
; /\/AES\d{9}O\d{4,5}\u{2e}jsp/Ui
(assert (str.in_re X (re.++ (str.to_re "//AES") ((_ re.loop 9 9) (re.range "0" "9")) (str.to_re "O") ((_ re.loop 4 5) (re.range "0" "9")) (str.to_re ".jsp/Ui\u{0a}"))))
(check-sat)
